100 10
864 938
447 455
563 904
546 473
611 55
861 679
602 537
97 815
150 430
552 427
869 869
386 691
251 996
883 775
365 561
865 666
626 421
543 933
842 276
653 280
644 542
545 101
375 471
398 649
529 722
791 145
819 697
211 336
356 612
727 642
900 481
512 687
676 29
826 633
477 789
963 695
347 760
976 751
262 680
425 225
227 528
470 416
434 586
427 783
403 481
579 427
480 434
83 549
312 980
678 595
112 553
368 624
535 795
498 783
555 582
377 869
462 550
339 324
442 398
612 916
476 438
416 458
742 368
424 615
574 945
752 424
454 223
336 419
613 777
690 632
716 732
605 606
148 553
906 218
465 316
920 451
112 303
262 658
236 419
880 449
302 781
814 238
683 101
308 298
467 719
411 702
222 543
954 669
455 298
620 778
513 820
518 750
280 814
763 170
445 869
623 694
331 389
392 776
710 108
266 875
